c Generated map
c Size: 8 * 8, weights in range: 1 to 10, walls: False, with ratio 0.0
c dim 6 of 8
c
p sp 64 112
c graph contains 64 nodes and 112 arcs
c
a 1 9 5
a 9 1 5
a 1 2 9
a 2 1 9
a 2 10 9
a 10 2 9
a 2 3 9
a 3 2 9
a 3 11 7
a 11 3 7
a 3 4 6
a 4 3 6
a 4 12 10
a 12 4 10
a 4 5 2
a 5 4 2
a 5 13 6
a 13 5 6
a 5 6 3
a 6 5 3
a 6 14 5
a 14 6 5
a 6 7 2
a 7 6 2
a 7 15 6
a 15 7 6
a 7 8 9
a 8 7 9
a 8 16 6
a 16 8 6
a 9 17 2
a 17 9 2
a 9 10 7
a 10 9 7
a 10 18 7
a 18 10 7
a 10 11 5
a 11 10 5
a 11 19 8
a 19 11 8
a 11 12 10
a 12 11 10
a 12 20 9
a 20 12 9
a 12 13 5
a 13 12 5
a 13 21 5
a 21 13 5
a 13 14 6
a 14 13 6
a 14 22 9
a 22 14 9
a 14 15 7
a 15 14 7
a 15 23 8
a 23 15 8
a 15 16 6
a 16 15 6
a 16 24 9
a 24 16 9
a 17 25 9
a 25 17 9
a 17 18 10
a 18 17 10
a 18 26 5
a 26 18 5
a 18 19 9
a 19 18 9
a 19 27 10
a 27 19 10
a 19 20 6
a 20 19 6
a 20 28 2
a 28 20 2
a 20 21 10
a 21 20 10
a 21 29 2
a 29 21 2
a 21 22 9
a 22 21 9
a 22 30 2
a 30 22 2
a 22 23 3
a 23 22 3
a 23 31 3
a 31 23 3
a 23 24 3
a 24 23 3
a 24 32 1
a 32 24 1
a 25 33 8
a 33 25 8
a 25 26 10
a 26 25 10
a 26 34 4
a 34 26 4
a 26 27 4
a 27 26 4
a 27 35 9
a 35 27 9
a 27 28 6
a 28 27 6
a 28 36 5
a 36 28 5
a 28 29 3
a 29 28 3
a 29 37 8
a 37 29 8
a 29 30 6
a 30 29 6
a 30 38 9
a 38 30 9
a 30 31 2
a 31 30 2
a 31 39 2
a 39 31 2
a 31 32 9
a 32 31 9
a 32 40 4
a 40 32 4
a 33 41 9
a 41 33 9
a 33 34 3
a 34 33 3
a 34 42 6
a 42 34 6
a 34 35 9
a 35 34 9
a 35 43 7
a 43 35 7
a 35 36 10
a 36 35 10
a 36 44 2
a 44 36 2
a 36 37 10
a 37 36 10
a 37 45 9
a 45 37 9
a 37 38 1
a 38 37 1
a 38 46 5
a 46 38 5
a 38 39 3
a 39 38 3
a 39 47 1
a 47 39 1
a 39 40 8
a 40 39 8
a 40 48 6
a 48 40 6
a 41 49 10
a 49 41 10
a 41 42 5
a 42 41 5
a 42 50 10
a 50 42 10
a 42 43 10
a 43 42 10
a 43 51 9
a 51 43 9
a 43 44 10
a 44 43 10
a 44 52 2
a 52 44 2
a 44 45 9
a 45 44 9
a 45 53 9
a 53 45 9
a 45 46 3
a 46 45 3
a 46 54 7
a 54 46 7
a 46 47 2
a 47 46 2
a 47 55 1
a 55 47 1
a 47 48 8
a 48 47 8
a 48 56 4
a 56 48 4
a 49 57 4
a 57 49 4
a 49 50 8
a 50 49 8
a 50 58 3
a 58 50 3
a 50 51 6
a 51 50 6
a 51 59 4
a 59 51 4
a 51 52 5
a 52 51 5
a 52 60 3
a 60 52 3
a 52 53 7
a 53 52 7
a 53 61 9
a 61 53 9
a 53 54 5
a 54 53 5
a 54 62 8
a 62 54 8
a 54 55 2
a 55 54 2
a 55 63 5
a 63 55 5
a 55 56 4
a 56 55 4
a 56 64 2
a 64 56 2
a 57 58 4
a 58 57 4
a 58 59 6
a 59 58 6
a 59 60 10
a 60 59 10
a 60 61 4
a 61 60 4
a 61 62 3
a 62 61 3
a 62 63 7
a 63 62 7
a 63 64 10
a 64 63 10
